NAME: rue_25_10
TYPE: TSP
DIMENSION: 25
EDGE_WEIGHT_TYPE: EUC_2D
NODE_COORD_SECTION
1 9 5
2 25 32
3 68 2
4 88 14
5 80 84
6 49 5
7 11 92
8 95 60
9 53 68
10 99 8
11 54 50
12 67 48
13 99 66
14 15 62
15 35 15
16 25 56
17 16 72
18 61 81
19 59 3
20 17 95
21 10 20
22 94 99
23 87 64
24 3 54
25 28 28
